problems/csplib-prob015/SchursLemma-models/noch/O2/lingeling/model_1_3-7-12-solution000001.eprime-solution
language ESSENCE' 1.0

letting boxes_PartitionAsSet_ExplicitR5_ExplicitVarSizeWithMarker_Marker be [1, 1, 1, 1, 1, 3, 4; int(1..7)]
letting boxes_PartitionAsSet_ExplicitR5_ExplicitVarSizeWithMarker_Values be
        [[1, 1, 1, 1, 1, 1, 1, 1, 1, 1, 1, 1; int(1..12)], [9, 1, 1, 1, 1, 1, 1, 1, 1, 1, 1, 1; int(1..12)],
         [10, 1, 1, 1, 1, 1, 1, 1, 1, 1, 1, 1; int(1..12)], [11, 1, 1, 1, 1, 1, 1, 1, 1, 1, 1, 1; int(1..12)],
         [12, 1, 1, 1, 1, 1, 1, 1, 1, 1, 1, 1; int(1..12)], [3, 6, 7, 1, 1, 1, 1, 1, 1, 1, 1, 1; int(1..12)],
         [2, 4, 5, 8, 1, 1, 1, 1, 1, 1, 1, 1; int(1..12)]; int(1..7)]
