problems/csplib-prob015/SchursLemma-models/noch/O2/lingeling/model_1_3-7-12-solution000001.solution
language Essence 1.3

letting boxes be partition({1}, {2, 4, 5, 8}, {3, 6, 7}, {9}, {10}, {11}, {12})
